; benchmark generated from python API
(set-info :status unknown)
(declare-fun W_S1_V4 () Bool)
(declare-fun W_S1_V2 () Bool)
(declare-fun R_S1_V3 () Bool)
(declare-fun R_S1_V1 () Bool)
(declare-fun W_S1_V3 () Bool)
(declare-fun W_S1_V1 () Bool)
(declare-fun DISJ_W_S1_R_S1 () Bool)
(declare-fun W_S1_V6 () Bool)
(declare-fun R_S1_V6 () Bool)
(declare-fun R_S1_V4 () Bool)
(declare-fun R_S1_V5 () Bool)
(declare-fun R_S1_V2 () Bool)
(declare-fun R_E2_V1 () Bool)
(declare-fun R_E1_V6 () Bool)
(declare-fun R_E1_V4 () Bool)
(declare-fun R_E1_V5 () Bool)
(declare-fun R_E1_V2 () Bool)
(declare-fun DISJ_W_S1_R_E1 () Bool)
(declare-fun R_E2_V6 () Bool)
(declare-fun R_E2_V4 () Bool)
(declare-fun R_E2_V5 () Bool)
(declare-fun R_E2_V2 () Bool)
(declare-fun DISJ_W_S1_R_E2 () Bool)
(declare-fun W_S1_V5 () Bool)
(declare-fun R_E1_V3 () Bool)
(declare-fun R_E1_V1 () Bool)
(declare-fun R_E2_V3 () Bool)
(assert
 (let (($x2920 (not (and (not R_S1_V1) (not R_S1_V3) (not W_S1_V2) (not W_S1_V4)))))
 (let (($x315 (not (and (not W_S1_V3) (not W_S1_V4)))))
 (let (($x1130 (not (and (not W_S1_V1) (not W_S1_V2)))))
 (let (($x964 (not (and (not R_S1_V1) DISJ_W_S1_R_S1))))
 (let (($x3575 (not (and (not R_S1_V3) DISJ_W_S1_R_S1))))
 (let (($x1345 (not (and (not W_S1_V4) DISJ_W_S1_R_S1))))
 (let (($x1796 (not (and (not W_S1_V2) DISJ_W_S1_R_S1))))
 (let (($x506 (forall ((V2_0 Int) )(forall ((V5_0 Int) )(forall ((V4_0 Int) )(forall ((V6_0 Int) )(forall ((MW_S1_V1 Bool) )(forall ((MW_S1_V3 Bool) )(forall ((MW_S1_V2 Bool) )(forall ((MW_S1_V5 Bool) )(forall ((MW_S1_V4 Bool) )(forall ((MW_S1_V6 Bool) )(forall ((S1_V1_!5249 Int) )(forall ((S1_V1_!5255 Int) )(forall ((S1_V1_!5264 Int) )(forall ((S1_V1_!5270 Int) )(forall ((S1_V3_!5250 Int) )(forall ((S1_V3_!5256 Int) )(forall ((S1_V3_!5265 Int) )(forall ((S1_V3_!5271 Int) )(forall ((S1_V2_!5251 Int) )(forall ((S1_V2_!5257 Int) )(forall ((S1_V2_!5266 Int) )(forall ((S1_V2_!5272 Int) )(forall ((E1_!5246 Int) )(forall ((E1_!5261 Int) )(forall ((E1_!5263 Int) )(forall ((S1_V5_!5252 Int) )(forall ((S1_V5_!5258 Int) )(forall ((S1_V5_!5267 Int) )(forall ((S1_V5_!5273 Int) )(forall ((E2_!5247 Int) )(forall ((E2_!5248 Int) )(forall ((E2_!5262 Int) )(forall ((S1_V4_!5253 Int) )(forall ((S1_V4_!5259 Int) )(forall ((S1_V4_!5268 Int) )(forall ((S1_V4_!5274 Int) )(forall ((S1_V6_!5254 Int) )(forall ((S1_V6_!5260 Int) )(forall ((S1_V6_!5269 Int) )(forall ((S1_V6_!5275 Int) )(let ((?x2960 (ite MW_S1_V3 S1_V3_!5271 E2_!5262)))
 (let ((?x346 (ite MW_S1_V3 S1_V3_!5250 E2_!5248)))
 (let ((?x66 (+ 1 ?x346)))
 (let ((?x1773 (ite MW_S1_V3 S1_V3_!5256 ?x66)))
 (let ((?x3180 (ite MW_S1_V1 S1_V1_!5264 E1_!5263)))
 (let ((?x4412 (+ 1 ?x3180)))
 (let ((?x5460 (ite MW_S1_V1 S1_V1_!5270 ?x4412)))
 (let ((?x5511 (ite MW_S1_V1 S1_V1_!5255 E1_!5246)))
 (let (($x1016 (and (= ?x5511 ?x5460) (= ?x1773 ?x2960) (= (ite MW_S1_V2 S1_V2_!5257 V2_0) (ite MW_S1_V2 S1_V2_!5272 V2_0)) (= (ite MW_S1_V5 S1_V5_!5258 V5_0) (ite MW_S1_V5 S1_V5_!5273 V5_0)) (= (ite MW_S1_V4 S1_V4_!5259 V4_0) (ite MW_S1_V4 S1_V4_!5274 V4_0)) (= (ite MW_S1_V6 S1_V6_!5260 V6_0) (ite MW_S1_V6 S1_V6_!5275 V6_0)))))
 (let (($x1866 (and (not (<= V4_0 E2_!5247)) (not (<= V2_0 E1_!5246)) (not (<= V4_0 E2_!5248)) (not (<= (ite MW_S1_V4 S1_V4_!5253 V4_0) ?x66)) (>= ?x1773 (+ (- 1) (ite MW_S1_V4 S1_V4_!5259 V4_0))) (>= ?x5511 (+ (- 1) (ite MW_S1_V2 S1_V2_!5257 V2_0))) (not (<= V2_0 E1_!5261)) (not (<= V4_0 E2_!5262)) (not (<= V2_0 E1_!5263)) (not (<= (ite MW_S1_V2 S1_V2_!5266 V2_0) ?x4412)) (>= ?x5460 (+ (- 1) (ite MW_S1_V2 S1_V2_!5272 V2_0))) (>= ?x2960 (+ (- 1) (ite MW_S1_V4 S1_V4_!5274 V4_0))))))
 (let (($x530 (= S1_V6_!5269 S1_V6_!5275)))
 (let (($x1059 (not R_S1_V6)))
 (let (($x4816 (or $x1059 (= V6_0 (ite MW_S1_V6 S1_V6_!5269 V6_0)))))
 (let (($x3109 (not R_S1_V4)))
 (let (($x3673 (or $x3109 (= V4_0 (ite MW_S1_V4 S1_V4_!5268 V4_0)))))
 (let (($x1626 (not R_S1_V5)))
 (let (($x4033 (or $x1626 (= V5_0 (ite MW_S1_V5 S1_V5_!5267 V5_0)))))
 (let (($x4263 (not R_S1_V2)))
 (let (($x1885 (or $x4263 (= V2_0 (ite MW_S1_V2 S1_V2_!5266 V2_0)))))
 (let (($x5251 (and (or (not R_S1_V1) (= E1_!5263 ?x4412)) (or (not R_S1_V3) (= E2_!5262 (ite MW_S1_V3 S1_V3_!5265 E2_!5262))) $x1885 $x4033 $x3673 $x4816)))
 (let (($x2611 (not $x5251)))
 (let (($x991 (= S1_V6_!5260 S1_V6_!5275)))
 (let (($x1114 (and (or (not R_S1_V1) (= (ite MW_S1_V1 S1_V1_!5249 E1_!5246) ?x4412)) (or (not R_S1_V3) (= ?x346 (+ (- 1) (ite MW_S1_V3 S1_V3_!5265 E2_!5262)))) (or $x4263 (= (ite MW_S1_V2 S1_V2_!5251 V2_0) (ite MW_S1_V2 S1_V2_!5266 V2_0))) (or $x1626 (= (ite MW_S1_V5 S1_V5_!5252 V5_0) (ite MW_S1_V5 S1_V5_!5267 V5_0))) (or $x3109 (= (ite MW_S1_V4 S1_V4_!5253 V4_0) (ite MW_S1_V4 S1_V4_!5268 V4_0))) (or $x1059 (= (ite MW_S1_V6 S1_V6_!5254 V6_0) (ite MW_S1_V6 S1_V6_!5269 V6_0))))))
 (let (($x571 (not $x1114)))
 (let (($x554 (= S1_V6_!5260 S1_V6_!5269)))
 (let (($x388 (or $x1059 (= (ite MW_S1_V6 S1_V6_!5254 V6_0) V6_0))))
 (let (($x3169 (or $x3109 (= (ite MW_S1_V4 S1_V4_!5253 V4_0) V4_0))))
 (let (($x1931 (or $x1626 (= (ite MW_S1_V5 S1_V5_!5252 V5_0) V5_0))))
 (let (($x4899 (or $x4263 (= (ite MW_S1_V2 S1_V2_!5251 V2_0) V2_0))))
 (let (($x3664 (and (or (not R_S1_V1) (= (ite MW_S1_V1 S1_V1_!5249 E1_!5246) E1_!5263)) (or (not R_S1_V3) (= ?x346 (+ (- 1) E2_!5262))) $x4899 $x1931 $x3169 $x388)))
 (let (($x3687 (not $x3664)))
 (let (($x5057 (and (or (not R_S1_V1) (= (ite MW_S1_V1 S1_V1_!5249 E1_!5246) E1_!5246)) (or (not R_S1_V3) (= ?x346 (+ (- 1) E2_!5248))) $x4899 $x1931 $x3169 $x388)))
 (let (($x1475 (not $x5057)))
 (let (($x1297 (and (or (not R_S1_V1) (= E1_!5246 ?x4412)) (or (not R_S1_V3) (= E2_!5248 (ite MW_S1_V3 S1_V3_!5265 E2_!5262))) $x1885 $x4033 $x3673 $x4816)))
 (let (($x1969 (not $x1297)))
 (let (($x4698 (and (or (not R_S1_V1) (= E1_!5246 E1_!5263)) (or (not R_S1_V3) (= E2_!5248 E2_!5262)))))
 (let (($x2445 (not $x4698)))
 (let (($x3637 (= S1_V4_!5274 S1_V4_!5268)))
 (let (($x2104 (or $x1059 (= (ite MW_S1_V6 S1_V6_!5269 V6_0) V6_0))))
 (let (($x2241 (or $x3109 (= (ite MW_S1_V4 S1_V4_!5268 V4_0) V4_0))))
 (let (($x4945 (or $x1626 (= (ite MW_S1_V5 S1_V5_!5267 V5_0) V5_0))))
 (let (($x126 (or $x4263 (= (ite MW_S1_V2 S1_V2_!5266 V2_0) V2_0))))
 (let (($x5684 (and (or (not R_S1_V1) (= ?x3180 (+ (- 1) E1_!5263))) (or (not R_S1_V3) (= (ite MW_S1_V3 S1_V3_!5265 E2_!5262) E2_!5262)) $x126 $x4945 $x2241 $x2104)))
 (let (($x2911 (not $x5684)))
 (let (($x443 (and (or (not R_S1_V1) (= ?x3180 (+ (- 1) (ite MW_S1_V1 S1_V1_!5249 E1_!5246)))) (or (not R_S1_V3) (= (ite MW_S1_V3 S1_V3_!5265 E2_!5262) ?x66)) (or $x4263 (= (ite MW_S1_V2 S1_V2_!5266 V2_0) (ite MW_S1_V2 S1_V2_!5251 V2_0))) (or $x1626 (= (ite MW_S1_V5 S1_V5_!5267 V5_0) (ite MW_S1_V5 S1_V5_!5252 V5_0))) (or $x3109 (= (ite MW_S1_V4 S1_V4_!5268 V4_0) (ite MW_S1_V4 S1_V4_!5253 V4_0))) (or $x1059 (= (ite MW_S1_V6 S1_V6_!5269 V6_0) (ite MW_S1_V6 S1_V6_!5254 V6_0))))))
 (let (($x1112 (not $x443)))
 (let (($x5128 (and (or (not R_S1_V1) (= ?x3180 (+ (- 1) E1_!5246))) (or (not R_S1_V3) (= (ite MW_S1_V3 S1_V3_!5265 E2_!5262) E2_!5248)) $x126 $x4945 $x2241 $x2104)))
 (let (($x5739 (not $x5128)))
 (let (($x674 (and (or (not R_S1_V1) (= E1_!5246 (ite MW_S1_V1 S1_V1_!5249 E1_!5246))) (or (not R_S1_V3) (= E2_!5248 ?x66)) (or $x4263 (= V2_0 (ite MW_S1_V2 S1_V2_!5251 V2_0))) (or $x1626 (= V5_0 (ite MW_S1_V5 S1_V5_!5252 V5_0))) (or $x3109 (= V4_0 (ite MW_S1_V4 S1_V4_!5253 V4_0))) (or $x1059 (= V6_0 (ite MW_S1_V6 S1_V6_!5254 V6_0))))))
 (let (($x3509 (not $x674)))
 (let (($x2455 (and (or (not R_S1_V1) (= E1_!5263 E1_!5246)) (or (not R_S1_V3) (= E2_!5262 E2_!5248)))))
 (let (($x2768 (= E1_!5263 E1_!5261)))
 (let (($x5043 (= E1_!5263 E1_!5246)))
 (let (($x1718 (= E1_!5246 E1_!5261)))
 (let (($x1237 (and (or $x3509 (= S1_V1_!5249 S1_V1_!5255)) (or $x2445 (= S1_V1_!5249 S1_V1_!5264)) (or $x1969 (= S1_V1_!5249 S1_V1_!5270)) (or $x3687 (= S1_V1_!5255 S1_V1_!5264)) (or $x1112 (= S1_V1_!5270 S1_V1_!5255)) (or $x2911 (= S1_V1_!5270 S1_V1_!5264)) (or $x3509 (= S1_V3_!5250 S1_V3_!5256)) (or $x2445 (= S1_V3_!5250 S1_V3_!5265)) (or $x1969 (= S1_V3_!5250 S1_V3_!5271)) (or $x3687 (= S1_V3_!5256 S1_V3_!5265)) (or $x571 (= S1_V3_!5256 S1_V3_!5271)) (or $x2611 (= S1_V3_!5265 S1_V3_!5271)) (or $x2445 (= S1_V2_!5251 S1_V2_!5266)) (or $x1969 (= S1_V2_!5251 S1_V2_!5272)) (or $x1475 (= S1_V2_!5257 S1_V2_!5251)) (or $x3687 (= S1_V2_!5257 S1_V2_!5266)) (or $x571 (= S1_V2_!5257 S1_V2_!5272)) (or $x2611 (= S1_V2_!5266 S1_V2_!5272)) $x1718 $x5043 $x2768 (or $x1475 (= S1_V5_!5258 S1_V5_!5252)) (or $x3687 (= S1_V5_!5258 S1_V5_!5267)) (or (not $x2455) (= S1_V5_!5267 S1_V5_!5252)) (or $x5739 (= S1_V5_!5273 S1_V5_!5252)) (or $x1112 (= S1_V5_!5273 S1_V5_!5258)) (or $x2911 (= S1_V5_!5273 S1_V5_!5267)) (= E2_!5248 E2_!5247) (or (not (or (not R_E2_V1) $x1718)) (= E2_!5248 E2_!5262)) (or (not (or (not R_E2_V1) (= E1_!5261 E1_!5246))) (= E2_!5262 E2_!5247)) (or $x3509 (= S1_V4_!5253 S1_V4_!5259)) (or $x2445 (= S1_V4_!5253 S1_V4_!5268)) (or $x3687 (= S1_V4_!5259 S1_V4_!5268)) (or $x5739 (= S1_V4_!5274 S1_V4_!5253)) (or $x1112 (= S1_V4_!5274 S1_V4_!5259)) (or $x2911 $x3637) (or $x2445 (= S1_V6_!5254 S1_V6_!5269)) (or $x1969 (= S1_V6_!5254 S1_V6_!5275)) (or $x1475 (= S1_V6_!5260 S1_V6_!5254)) (or $x3687 $x554) (or $x571 $x991) (or $x2611 $x530) (or (not MW_S1_V1) W_S1_V1) (or (not MW_S1_V3) W_S1_V3) (or (not MW_S1_V2) W_S1_V2) (or (not MW_S1_V4) W_S1_V4) (or (not MW_S1_V6) W_S1_V6))))
 (or (not $x1237) (not $x1866) $x1016)))))))))))))))))))))))))))))))))))))))))))))))))))))))))
 )
 )
 )
 )
 )
 )
 )
 )
 )
 )
 )
 )
 )
 )
 )
 )
 )
 )
 )
 )
 )
 )
 )
 )
 )
 )
 )
 )
 )
 )
 )
 )
 )
 )
 )
 )
 )
 )
 )
 ))
 (let (($x3649 (and W_S1_V6 R_E1_V6)))
 (let (($x1125 (and W_S1_V4 R_E1_V4)))
 (let (($x5974 (and W_S1_V2 R_E1_V2)))
 (let (($x813 (= DISJ_W_S1_R_E1 (not (or $x5974 R_E1_V5 $x1125 $x3649)))))
 (let (($x2527 (and W_S1_V6 R_S1_V6)))
 (let (($x3646 (and W_S1_V4 R_S1_V4)))
 (let (($x883 (and W_S1_V2 R_S1_V2)))
 (let (($x380 (and W_S1_V3 R_S1_V3)))
 (let (($x1929 (and W_S1_V1 R_S1_V1)))
 (let (($x5780 (= DISJ_W_S1_R_S1 (not (or $x1929 $x380 $x883 R_S1_V5 $x3646 $x2527)))))
 (let (($x1751 (and W_S1_V6 R_E2_V6)))
 (let (($x4109 (and W_S1_V4 R_E2_V4)))
 (let (($x4823 (and W_S1_V2 R_E2_V2)))
 (let (($x1821 (and W_S1_V1 R_E2_V1)))
 (let (($x5109 (= DISJ_W_S1_R_E2 (not (or $x1821 $x4823 R_E2_V5 $x4109 $x1751)))))
 (let (($x4838 (not R_E1_V3)))
 (let (($x2185 (not R_E1_V1)))
 (let (($x3284 (not R_E2_V3)))
 (and (and $x3284 $x2185 $x4838 W_S1_V5 $x5109 $x5780 $x813 $x506) $x1796 $x1345 $x3575 $x964 $x1130 $x315 $x2920))))))))))))))))))))))))))))
(check-sat)
